/* Objective function */
min: +C1 +C2 +C3 +C4 +C5 +C6 +C7 +C8 +C9 +C10 +C11 +C12 +C13 +C14 +C15 +C16 +C17 +C18 +C19 +C20 +C21 +C22
 +C23 +C24 +C25 +C26 +C27 +C28 +C29 +C30 +C31 +C32 +C33 +C34 +C35 +C36 +C37 +C38 +C39 +C40 +C41 +C42
 +C43 +C44 +C45 +C46 +C47 +C48 +C49 +C50 +C51 +C52 +C53 +C54 +C55 +C56 +C57 +C58 +C59 +C60 +C61 +C62
 +C63 +C64 +C65 +C66 +C67 +C68 +C69 +C70 +C71 +C72 +C73 +C74 +C75 +C76 +C77 +C78 +C79 +C80 +C81 +C82
 +C83 +C84 +C85 +C86 +C87 +C88 +C89 +C90 +C91 +C92 +C93 +C94 +C95 +C96 +C97 +C98 +C99 +C100 +C101 +C102
 +C103 +C104 +C105 +C106 +C107 +C108 +C109 +C110 +C111 +C112 +C113 +C114 +C115 +C116 +C117 +C118 +C119
 +C120 +C121 +C122 +C123 +C124 +C125 +C126 +C127 +C128 +C129 +C130 +C131 +C132 +C133 +C134 +C135 +C136
 +C137 +C138 +C139 +C140 +C141 +C142 +C143 +C144 +C145 +C146 +C147 +C148 +C149 +C150;

/* Constraints */
+C1 +C3 = 1;
+C1 +C8 = 1;
+C8 +C9 -C12 = 0;
-C3 -C9 +C12 = 0;
+C13 +C15 = 1;
-C13 +C17 = 0;
+C17 +C24 = 1;
-C15 +C24 = 0;
+C25 +C27 = 1;
-C25 +C29 -C32 = 0;
-C29 +C32 +C33 = 0;
+C27 +C33 = 1;
+C39 -C40 -C46 = 0;
+C40 +C41 = 1;
+C41 +C48 = 1;
-C39 +C46 +C48 = 0;
+C51 -C52 = 0;
+C52 +C53 = 1;
-C53 +C57 = 0;
+C51 +C57 = 1;
+C61 +C63 -C64 = 0;
-C61 +C64 -C68 = 0;
+C68 +C69 = 1;
+C63 +C69 = 1;
+C73 +C75 = 1;
+C73 +C80 = 1;
+C80 +C81 -C84 = 0;
-C75 -C81 +C84 = 0;
+C85 +C87 = 1;
-C85 +C89 = 0;
+C89 +C96 = 1;
-C87 +C96 = 0;
+C97 +C99 = 1;
-C97 +C101 -C104 = 0;
-C101 +C104 +C105 = 0;
+C99 +C105 = 1;
+C111 -C112 -C118 = 0;
+C112 +C113 = 1;
+C113 +C120 = 1;
-C111 +C118 +C120 = 0;
+C123 -C124 = 0;
+C124 +C125 = 1;
-C125 +C129 = 0;
+C123 +C129 = 1;
+C133 +C135 -C136 = 0;
-C133 +C136 -C140 = 0;
+C140 +C141 = 1;
+C135 +C141 = 1;
+C1 +C73 <= 1;
+C2 +C74 <= 1;
+C3 +C75 <= 1;
+C5 +C77 <= 1;
+C6 +C78 <= 1;
+C9 +C81 <= 1;
+C13 +C85 <= 1;
+C14 +C86 <= 1;
+C15 +C87 <= 1;
+C17 +C89 <= 1;
+C18 +C90 <= 1;
+C21 +C93 <= 1;
+C25 +C97 <= 1;
+C26 +C98 <= 1;
+C27 +C99 <= 1;
+C29 +C101 <= 1;
+C30 +C102 <= 1;
+C33 +C105 <= 1;
+C37 +C109 <= 1;
+C38 +C110 <= 1;
+C39 +C111 <= 1;
+C41 +C113 <= 1;
+C42 +C114 <= 1;
+C45 +C117 <= 1;
+C49 +C121 <= 1;
+C50 +C122 <= 1;
+C51 +C123 <= 1;
+C53 +C125 <= 1;
+C54 +C126 <= 1;
+C57 +C129 <= 1;
+C61 +C133 <= 1;
+C62 +C134 <= 1;
+C63 +C135 <= 1;
+C65 +C137 <= 1;
+C66 +C138 <= 1;
+C69 +C141 <= 1;
+10 C1 +10 C4 +10 C73 +10 C76 -100 C145 <= 0;
+10 C2 +10 C7 +10 C74 +10 C79 <= 0;
+10 C3 +10 C10 +10 C75 +10 C82 -100 C147 <= 0;
+10 C5 +10 C8 +10 C77 +10 C80 -100 C148 <= 0;
+10 C6 +10 C11 +10 C78 +10 C83 <= 0;
+10 C9 +10 C12 +10 C81 +10 C84 -100 C150 <= 0;
R91: +C145 <= 80;
R92: +C146 <= 80;
R93: +C147 <= 80;
R94: +C148 <= 80;
R95: +C149 <= 80;
R96: +C150 <= 80;

/* Variable bounds */
C1 <= 1;
C2 <= 1;
C3 <= 1;
C4 <= 1;
C5 <= 1;
C6 <= 1;
C7 <= 1;
C8 <= 1;
C9 <= 1;
C10 <= 1;
C11 <= 1;
C12 <= 1;
C13 <= 1;
C14 <= 1;
C15 <= 1;
C16 <= 1;
C17 <= 1;
C18 <= 1;
C19 <= 1;
C20 <= 1;
C21 <= 1;
C22 <= 1;
C23 <= 1;
C24 <= 1;
C25 <= 1;
C26 <= 1;
C27 <= 1;
C28 <= 1;
C29 <= 1;
C30 <= 1;
C31 <= 1;
C32 <= 1;
C33 <= 1;
C34 <= 1;
C35 <= 1;
C36 <= 1;
C37 <= 1;
C38 <= 1;
C39 <= 1;
C40 <= 1;
C41 <= 1;
C42 <= 1;
C43 <= 1;
C44 <= 1;
C45 <= 1;
C46 <= 1;
C47 <= 1;
C48 <= 1;
C49 <= 1;
C50 <= 1;
C51 <= 1;
C52 <= 1;
C53 <= 1;
C54 <= 1;
C55 <= 1;
C56 <= 1;
C57 <= 1;
C58 <= 1;
C59 <= 1;
C60 <= 1;
C61 <= 1;
C62 <= 1;
C63 <= 1;
C64 <= 1;
C65 <= 1;
C66 <= 1;
C67 <= 1;
C68 <= 1;
C69 <= 1;
C70 <= 1;
C71 <= 1;
C72 <= 1;
C73 <= 1;
C74 <= 1;
C75 <= 1;
C76 <= 1;
C77 <= 1;
C78 <= 1;
C79 <= 1;
C80 <= 1;
C81 <= 1;
C82 <= 1;
C83 <= 1;
C84 <= 1;
C85 <= 1;
C86 <= 1;
C87 <= 1;
C88 <= 1;
C89 <= 1;
C90 <= 1;
C91 <= 1;
C92 <= 1;
C93 <= 1;
C94 <= 1;
C95 <= 1;
C96 <= 1;
C97 <= 1;
C98 <= 1;
C99 <= 1;
C100 <= 1;
C101 <= 1;
C102 <= 1;
C103 <= 1;
C104 <= 1;
C105 <= 1;
C106 <= 1;
C107 <= 1;
C108 <= 1;
C109 <= 1;
C110 <= 1;
C111 <= 1;
C112 <= 1;
C113 <= 1;
C114 <= 1;
C115 <= 1;
C116 <= 1;
C117 <= 1;
C118 <= 1;
C119 <= 1;
C120 <= 1;
C121 <= 1;
C122 <= 1;
C123 <= 1;
C124 <= 1;
C125 <= 1;
C126 <= 1;
C127 <= 1;
C128 <= 1;
C129 <= 1;
C130 <= 1;
C131 <= 1;
C132 <= 1;
C133 <= 1;
C134 <= 1;
C135 <= 1;
C136 <= 1;
C137 <= 1;
C138 <= 1;
C139 <= 1;
C140 <= 1;
C141 <= 1;
C142 <= 1;
C143 <= 1;
C144 <= 1;

/* Integer definitions */
int C1,C2,C3,C4,C5,C6,C7,C8,C9,C10,C11,C12,C13,C14,C15,C16,C17,C18,C19,C20,C21,C22,C23,C24,C25,C26,C27,C28,C29,C30,C31,C32,C33,C34,C35,C36,C37,C38,C39,C40,C41,C42,C43,C44,C45,C46,C47,C48,C49,C50,C51,C52,C53,C54,C55,C56,C57,C58,C59,C60,C61,C62,C63,C64,C65,C66,C67,C68,C69,C70,C71,C72,C73,C74,C75,C76,C77,C78,C79,C80,C81,C82,C83,C84,C85,C86,C87,C88,C89,C90,C91,C92,C93,C94,C95,C96,C97,C98,C99,C100,C101,C102,C103,C104,C105,C106,C107,C108,C109,C110,C111,C112,C113,C114,C115,C116,C117,C118,C119,C120,C121,C122,C123,C124,C125,C126,C127,C128,C129,C130,C131,C132,C133,C134,C135,C136,C137,C138,C139,C140,C141,C142,C143,C144,C145,C146,C147,C148,C149,C150;
